(set-info :smt-lib-version 2.6)
(set-logic UFNIRA)
(set-info :source |
Generated by: Geoff Sutcliffe
Generated on: 2026-03-11
Generator: TPTPWorld
Application: Benchmarking automated theorem provers
Time limit: 120.0

These benchmarks are translations from the TPTP Library (Thousands of
Problems for Theorem Provers), see http://www.cs.miami.edu/~tptp/

The TPTP is maintained by Geoff Sutcliffe, and he contributed this
selection of benchmarks to SMT-LIB.  They were exported from the
v9.2.1 realease of TPTP.
|)
(set-info :category "industrial")
(set-info :status unknown)
; SZS status Success
(declare-sort $$unsorted 0)
(declare-fun tptp.power (Real Int) Real)
(assert (forall ((X Real)) (= (tptp.power X 0) 1.0)))
(assert (forall ((X Real) (N Int)) (=> (<= 0 N) (= (tptp.power X (+ N 1)) (* X (tptp.power X N))))))
(assert (forall ((X Real) (N Int)) (=> (< 0 N) (= (tptp.power X N) (* X (tptp.power X (- N 1)))))))
(assert (forall ((X Real)) (= (tptp.power X 1) X)))
(assert (forall ((X Real) (N Int) (M Int)) (=> (<= 0 N) (=> (<= 0 M) (= (tptp.power X (+ N M)) (* (tptp.power X N) (tptp.power X M)))))))
(assert (forall ((X Real) (N Int) (M Int)) (=> (<= 0 N) (=> (<= 0 M) (= (tptp.power X (* N M)) (tptp.power (tptp.power X N) M))))))
(assert (forall ((X Real) (Y Real) (N Int)) (=> (<= 0 N) (= (tptp.power (* X Y) N) (* (tptp.power X N) (tptp.power Y N))))))
(assert (forall ((X Real) (N Int)) (=> (and (<= 0 N) (<= 1.0 X)) (<= 1.0 (tptp.power X N)))))
(assert (not (= (tptp.power 2.0 2) 4.0)))
(check-sat)
(exit)
